TCS_Benchmarks/redos_fix/corpus1_output_distinct_802_801_12_0.smt2
(set-logic QF_S)
(declare-const x String)
(assert (str.in.re x (re.inter (re.+ (re.union (re.range "\u{09}" "\u{0d}") (re.range "\u{20}" "\u{20}") (re.range "\u{85}" "\u{85}") (re.range "\u{a0}" "\u{a0}")) )  (re.++ (re.+ (re.union (re.range "\u{09}" "\u{0d}") (re.range "\u{20}" "\u{20}") (re.range "\u{85}" "\u{85}") (re.range "\u{a0}" "\u{a0}")) ) (re.++ (re.*  (re.++  (re.union  (re.++  (str.to.re "\u{30}") (re.++  (str.to.re "\u{78}") (re.+  (re.union (re.range "\u{61}" "\u{66}") (re.union (re.range "\u{30}" "\u{39}") (re.range "\u{41}" "\u{5a}"))) )))  (re.++  (str.to.re "\u{3c}") (re.++ (re.+  (re.union (re.range "\u{41}" "\u{5a}") (re.range "\u{61}" "\u{7a}")) )  (str.to.re "\u{3e}")))) (re.opt  (str.to.re "\u{2b}") )) ) (re.* (re.union (re.range "\u{09}" "\u{0d}") (re.range "\u{20}" "\u{20}") (re.range "\u{85}" "\u{85}") (re.range "\u{a0}" "\u{a0}")) ))) (re.* (re.union (re.range "\u{09}" "\u{0d}") (re.range "\u{20}" "\u{20}") (re.range "\u{85}" "\u{85}") (re.range "\u{a0}" "\u{a0}")) ) )))
(check-sat)
(get-model)