TCS_Benchmarks/redos_fix/corpus1_output_distinct_802_801_12_0.txt
\s+
(\s+)((((0x[a-f0-9A-Z]+|<[A-Za-z]+>)\+?)*))(\s*)
\s*